
  32    1
  10

   0   0   3 2 3 8 
   8   1   2 6 5 
   6   3   1 4 
   5   3   2 10 6 
   7   4   3 11 10 9 
   4   1   1 7 
   2   1   4 14 12 11 9 
  10   3   3 15 14 9 
  10   2   3 18 16 13 
   4   1   2 14 12 
   5   1   3 18 17 15 
   9   3   3 19 18 17 
   1   1   3 24 19 17 
   5   2   2 24 17 
   1   3   4 24 23 21 19 
   3   3   1 17 
   2   1   5 31 23 22 21 20 
   4   1   4 24 22 21 20 
   9   1   6 31 30 29 28 25 22 
   7   2   5 30 29 28 26 25 
   8   1   3 29 27 26 
   4   2   2 27 26 
   6   3   2 28 26 
   5   1   2 29 28 
   6   4   1 27 
  10   2   1 32
   6   1   1 32
   8   2   1 32
   4   1   1 32
   8   3   1 32
   1   3   1 32
   0   0   0 
